NAME : instances/diverse-tsp/instance-24.tsp
COMMENT : No Comment
TYPE : TSP
DIMENSION: 46
EDGE_WEIGHT_TYPE : EUC_2D
NODE_COORD_SECTION
1 1639 737 
2 993 1764 
3 409 628 
4 24 1772 
5 8 1489 
6 603 31 
7 23 666 
8 480 1724 
9 756 506 
10 1922 1968 
11 1166 1194 
12 411 788 
13 125 860 
14 1832 256 
15 1306 1762 
16 152 345 
17 1665 72 
18 130 1014 
19 1724 1056 
20 1694 441 
21 719 1701 
22 468 1092 
23 1582 1602 
24 1435 681 
25 1973 1110 
26 168 1025 
27 1542 1185 
28 1656 731 
29 507 1971 
30 398 602 
31 882 1737 
32 992 708 
33 543 1588 
34 426 1536 
35 1755 1573 
36 468 1681 
37 1359 1548 
38 1234 495 
39 761 133 
40 1010 229 
41 354 299 
42 1882 1276 
43 465 500 
44 1225 1008 
45 408 1985 
46 1456 396 
EOF
